
Route #1: 19 60 27 65 4 67 2 
Route #2: 28 42 46 54 26 43 52 66 30 
Route #3: 7 64 31 53 18 61 21 55 14 57 11 
Route #4: 24 58 29 40 38 59 20 68 8 41 10 1 
Route #5: 34 47 25 63 17 32 37 
Route #6: 3 15 62 56 39 48 
Route #7: 12 6 13 45 35 44 51 
Route #8: 22 49 33 36 50 16 5 
Route #9: 23 9 
cost 1866.24
total time is 8.9